70
1 0 133
2 0 27
2 1 154
3 0 39
3 1 44
3 2 8
4 0 29
4 1 39
4 2 29
4 3 60
5 0 114
5 1 152
5 2 140
5 4 24
6 0 17
6 1 26
6 2 124
6 3 73
6 4 78
6 5 30
7 0 29
7 1 12
7 2 68
7 3 44
7 4 150
7 5 22
7 6 99
8 0 137
8 1 79
8 2 100
8 3 139
8 4 154
8 5 1
8 6 78
8 7 81
9 0 41
9 1 20
9 2 7
9 3 109
9 4 138
9 5 6
9 6 147
9 7 106
9 8 143
10 0 107
10 1 46
10 2 91
10 3 7
10 4 141
10 5 28
10 6 41
10 7 102
10 8 38
10 9 143
11 0 37
11 1 140
11 2 98
11 3 27
11 4 125
11 5 56
11 6 112
11 7 46
11 9 96
12 0 46
12 1 69
12 3 30
12 4 144
12 5 56
12 6 107
12 7 39
12 8 14
12 9 10
12 10 2
12 11 115
13 0 22
13 1 56
13 2 80
13 3 53
13 4 144
13 5 52
13 7 43
13 8 66
13 9 147
13 10 55
13 11 140
13 12 126
14 0 74
14 2 89
14 3 77
14 4 38
14 5 39
14 6 106
14 7 5
14 8 14
14 9 6
14 10 116
14 13 95
15 0 61
15 1 14
15 2 138
15 3 1
15 4 108
15 5 42
15 6 151
15 7 141
15 8 93
15 9 138
15 10 6
15 11 157
15 12 78
15 13 6
15 14 118
16 0 121
16 3 62
16 4 75
16 5 154
16 6 2
16 7 71
16 8 8
16 9 16
16 10 77
16 11 19
16 12 83
16 13 129
16 14 79
16 15 130
17 0 15
17 1 61
17 2 154
17 3 4
17 4 83
17 5 1
17 6 106
17 7 95
17 9 151
17 10 99
17 11 62
17 12 52
17 13 65
17 14 8
17 15 120
17 16 66
18 0 4
18 2 114
18 3 31
18 4 130
18 5 142
18 6 48
18 7 131
18 8 63
18 9 98
18 10 150
18 11 34
18 12 96
18 13 7
18 14 45
18 16 96
18 17 56
19 0 98
19 1 69
19 2 55
19 3 46
19 4 74
19 7 97
19 8 10
19 9 91
19 10 106
19 11 101
19 12 98
19 14 158
19 15 26
19 16 48
19 17 18
19 18 67
20 0 3
20 1 129
20 2 137
20 3 84
20 4 47
20 5 69
20 6 26
20 7 155
20 8 69
20 9 100
20 10 136
20 11 46
20 12 110
20 13 67
20 14 69
20 15 56
20 16 116
20 17 151
20 18 152
20 19 126
21 0 22
21 2 50
21 3 72
21 4 12
21 5 44
21 6 80
21 7 94
21 8 119
21 9 17
21 10 125
21 11 118
21 12 15
21 13 32
21 14 105
21 15 145
21 16 115
21 17 150
21 18 61
21 19 137
21 20 71
22 0 27
22 1 50
22 2 45
22 3 7
22 4 73
22 5 117
22 6 18
22 7 93
22 8 90
22 10 100
22 11 4
22 12 124
22 13 16
22 14 88
22 15 45
22 16 133
22 17 116
22 18 30
22 19 90
22 20 146
22 21 107
23 0 28
23 1 68
23 2 159
23 3 46
23 4 154
23 5 84
23 6 97
23 8 103
23 9 158
23 10 158
23 11 141
23 12 142
23 13 22
23 16 28
23 17 95
23 18 78
23 19 98
23 20 24
23 21 160
23 22 21
24 0 25
24 1 23
24 2 74
24 3 43
24 4 16
24 5 122
24 6 24
24 7 110
24 9 16
24 10 56
24 11 58
24 12 142
24 13 104
24 14 141
24 15 148
24 16 23
24 18 55
24 19 121
24 20 75
24 21 110
24 22 85
24 23 52
25 0 44
25 1 36
25 2 74
25 3 78
25 4 21
25 5 139
25 6 64
25 7 61
25 8 49
25 9 19
25 10 159
25 11 3
25 12 108
25 13 109
25 14 21
25 15 47
25 16 124
25 17 139
25 18 38
25 19 121
25 20 86
25 22 104
25 23 108
25 24 146
26 0 109
26 1 37
26 2 135
26 3 155
26 4 154
26 5 69
26 6 143
26 7 77
26 8 75
26 9 31
26 10 2
26 11 69
26 12 71
26 13 54
26 14 34
26 15 156
26 16 127
26 18 18
26 20 154
26 21 143
26 22 143
26 23 32
26 24 128
26 25 76
27 0 128
27 1 6
27 2 7
27 3 19
27 4 13
27 5 123
27 6 23
27 7 33
27 8 83
27 9 38
27 10 34
27 11 72
27 12 156
27 14 139
27 15 79
27 16 31
27 17 53
27 18 73
27 19 150
27 20 45
27 22 63
27 23 139
27 24 28
27 25 84
27 26 6
28 0 154
28 1 130
28 3 38
28 5 120
28 6 135
28 7 154
28 8 158
28 9 27
28 11 145
28 12 16
28 14 50
28 15 87
28 16 17
28 17 75
28 18 103
28 19 32
28 20 100
28 21 79
28 22 61
28 23 62
28 26 15
28 27 35
29 0 43
29 1 69
29 2 46
29 3 12
29 4 106
29 5 116
29 6 33
29 7 80
29 8 81
29 9 102
29 10 150
29 11 126
29 12 107
29 13 115
29 14 36
29 15 22
29 16 113
29 17 122
29 18 1
29 19 44
29 20 67
29 21 44
29 22 74
29 23 61
29 24 37
29 25 58
29 26 19
29 28 130
30 0 22
30 1 93
30 2 139
30 3 160
30 4 14
30 5 114
30 6 118
30 7 150
30 8 79
30 9 151
30 10 23
30 11 50
30 12 28
30 13 57
30 14 110
30 15 122
30 16 70
30 17 145
30 18 13
30 19 23
30 20 160
30 21 52
30 22 63
30 23 94
30 24 71
30 25 16
30 26 48
30 27 38
30 28 110
31 1 118
31 2 113
31 3 61
31 4 94
31 5 53
31 6 80
31 7 48
31 8 75
31 10 40
31 11 4
31 12 13
31 14 57
31 15 158
31 17 26
31 18 9
31 19 84
31 20 78
31 21 118
31 22 68
31 23 104
31 24 72
31 25 64
31 26 57
31 27 113
31 29 82
31 30 136
32 0 26
32 1 117
32 2 64
32 3 103
32 4 23
32 5 78
32 6 113
32 7 84
32 8 50
32 9 1
32 10 135
32 11 96
32 12 117
32 13 111
32 14 123
32 15 55
32 16 68
32 17 92
32 18 135
32 19 99
32 21 93
32 22 134
32 23 62
32 24 47
32 25 104
32 26 141
32 27 12
32 28 118
32 29 89
32 30 29
32 31 149
33 0 121
33 1 139
33 2 95
33 3 51
33 4 40
33 5 63
33 6 23
33 7 62
33 8 116
33 9 95
33 10 86
33 11 81
33 12 100
33 13 83
33 14 40
33 15 28
33 16 62
33 18 121
33 19 37
33 21 151
33 22 122
33 23 109
33 24 115
33 25 92
33 26 114
33 27 42
33 28 157
33 29 53
33 30 45
33 31 134
34 0 114
34 1 137
34 2 72
34 3 40
34 4 87
34 5 93
34 6 27
34 7 6
34 8 46
34 9 125
34 10 137
34 11 63
34 12 152
34 13 6
34 14 10
34 15 115
34 16 63
34 17 149
34 18 23
34 20 85
34 21 88
34 22 139
34 23 138
34 24 145
34 25 145
34 26 153
34 27 122
34 28 124
34 29 71
34 30 55
34 32 114
34 33 9
35 0 152
35 2 124
35 3 133
35 4 12
35 5 42
35 6 109
35 7 91
35 8 33
35 9 54
35 10 23
35 11 150
35 12 15
35 13 13
35 14 139
35 15 131
35 16 56
35 17 98
35 18 128
35 19 159
35 20 20
35 21 17
35 22 124
35 23 80
35 24 11
35 25 97
35 26 19
35 27 129
35 29 36
35 30 54
35 31 115
35 32 53
35 33 100
36 0 125
36 1 68
36 3 155
36 4 145
36 5 117
36 6 126
36 7 100
36 8 102
36 9 138
36 11 116
36 12 9
36 13 79
36 14 87
36 15 26
36 16 84
36 17 106
36 18 12
36 19 146
36 20 126
36 21 85
36 22 13
36 23 23
36 24 114
36 25 125
36 26 126
36 28 145
36 29 110
36 31 123
36 32 28
36 33 62
36 34 158
36 35 26
37 0 121
37 1 81
37 2 160
37 3 153
37 4 61
37 5 60
37 7 145
37 8 63
37 9 40
37 10 160
37 11 36
37 12 154
37 13 136
37 14 93
37 15 119
37 16 120
37 17 22
37 19 12
37 20 146
37 21 113
37 23 33
37 24 93
37 25 80
37 28 157
37 29 53
37 30 99
37 31 11
37 32 22
37 33 144
37 34 103
37 35 94
37 36 25
38 0 139
38 1 118
38 2 93
38 4 31
38 5 135
38 6 108
38 7 105
38 8 144
38 9 64
38 10 134
38 12 26
38 13 124
38 15 101
38 16 9
38 17 65
38 18 97
38 19 147
38 20 46
38 21 72
38 22 33
38 23 90
38 24 35
38 25 75
38 26 131
38 27 12
38 28 29
38 29 124
38 30 60
38 31 51
38 32 70
38 33 43
38 34 105
38 35 27
38 36 81
38 37 158
39 0 87
39 1 65
39 2 155
39 3 29
39 4 135
39 5 34
39 6 91
39 7 146
39 8 144
39 9 5
39 10 91
39 11 106
39 12 123
39 13 119
39 14 109
39 15 63
39 16 128
39 17 56
39 18 13
39 19 154
39 20 121
39 21 103
39 22 42
39 23 156
39 24 143
39 25 90
39 26 116
39 27 54
39 28 101
39 29 20
39 30 136
39 31 36
39 32 114
39 33 51
39 34 64
39 35 22
39 36 157
39 37 27
39 38 69
40 0 39
40 2 29
40 4 111
40 5 53
40 6 105
40 7 10
40 8 108
40 9 136
40 10 151
40 11 118
40 14 160
40 15 4
40 17 125
40 18 48
40 20 151
40 21 101
40 22 151
40 23 28
40 25 45
40 26 90
40 27 6
40 28 61
40 29 127
40 30 81
40 31 6
40 32 49
40 33 77
40 34 112
40 35 52
40 36 147
40 37 91
40 38 3
41 0 62
41 1 135
41 2 138
41 3 15
41 4 39
41 5 3
41 6 144
41 7 110
41 8 46
41 10 117
41 11 30
41 12 114
41 13 42
41 14 40
41 15 67
41 16 147
41 17 25
41 18 147
41 19 116
41 20 116
41 21 58
41 22 13
41 23 90
41 24 34
41 25 36
41 26 112
41 27 119
41 28 109
41 29 67
41 30 89
41 31 57
41 32 34
41 33 82
41 34 45
41 35 146
41 36 70
41 37 66
41 38 35
41 39 85
41 40 3
42 0 32
42 1 38
42 2 3
42 3 104
42 4 134
42 5 154
42 6 28
42 7 110
42 9 1
42 10 32
42 11 105
42 12 66
42 13 150
42 14 110
42 15 99
42 16 40
42 17 139
42 18 55
42 19 116
42 21 4
42 22 92
42 23 62
42 24 66
42 25 108
42 27 29
42 28 131
42 29 1
42 30 93
42 31 136
42 32 66
42 34 17
42 35 41
42 36 137
42 37 157
42 38 115
42 39 118
42 40 4
42 41 49
43 0 133
43 1 96
43 2 45
43 3 66
43 4 83
43 5 113
43 6 40
43 7 39
43 8 65
43 10 99
43 11 97
43 13 50
43 14 143
43 15 25
43 16 106
43 17 92
43 18 131
43 19 95
43 20 83
43 21 19
43 23 9
43 24 32
43 25 106
43 26 128
43 28 10
43 29 3
43 30 81
43 31 115
43 32 125
43 33 145
43 34 61
43 35 147
43 36 6
43 37 120
43 38 60
43 39 106
43 40 30
43 41 28
43 42 67
44 0 128
44 1 27
44 2 49
44 3 40
44 4 79
44 5 136
44 6 104
44 7 2
44 8 156
44 9 56
44 10 52
44 11 75
44 12 35
44 13 5
44 14 51
44 15 44
44 16 138
44 18 96
44 19 133
44 20 40
44 21 58
44 22 106
44 24 160
44 25 102
44 26 114
44 27 106
44 29 58
44 30 16
44 31 142
44 32 74
44 33 139
44 34 150
44 35 74
44 36 80
44 37 148
44 38 65
44 39 155
44 40 13
44 41 140
44 42 26
44 43 31
45 0 34
45 1 151
45 2 71
45 3 11
45 4 45
45 5 11
45 6 98
45 7 8
45 8 50
45 9 132
45 10 12
45 11 70
45 12 108
45 13 158
45 14 58
45 15 148
45 16 105
45 17 109
45 18 107
45 19 150
45 20 133
45 21 49
45 22 48
45 24 41
45 25 68
45 26 99
45 27 144
45 28 56
45 29 17
45 30 159
45 31 1
45 32 25
45 33 153
45 34 20
45 35 122
45 36 142
45 37 25
45 38 54
45 39 85
45 40 19
45 41 41
45 42 156
45 43 49
45 44 38
46 0 17
46 1 124
46 2 106
46 3 131
46 4 38
46 5 53
46 6 99
46 7 70
46 9 64
46 10 49
46 11 68
46 12 131
46 13 152
46 15 2
46 16 159
46 17 4
46 18 39
46 19 131
46 20 128
46 21 137
46 22 25
46 23 122
46 24 95
46 26 144
46 27 103
46 28 57
46 29 131
46 30 153
46 31 116
46 32 103
46 33 112
46 34 35
46 35 81
46 36 86
46 37 136
46 38 158
46 39 92
46 40 62
46 41 144
46 42 129
46 43 48
46 44 90
46 45 97
47 0 5
47 2 58
47 3 4
47 4 127
47 5 40
47 6 97
47 7 103
47 8 141
47 9 35
47 10 122
47 12 53
47 13 77
47 14 124
47 15 1
47 16 118
47 18 41
47 19 125
47 20 2
47 21 11
47 23 116
47 24 13
47 25 134
47 26 28
47 27 127
47 29 143
47 30 66
47 31 1
47 32 135
47 33 22
47 35 116
47 36 25
47 38 20
47 39 51
47 40 17
47 41 84
47 42 132
47 43 130
47 44 77
47 45 28
47 46 154
48 0 141
48 1 149
48 2 19
48 4 120
48 6 34
48 7 157
48 8 41
48 9 40
48 10 122
48 11 78
48 12 147
48 13 63
48 14 98
48 15 133
48 16 111
48 17 131
48 18 122
48 19 116
48 20 114
48 21 7
48 22 65
48 23 58
48 24 50
48 25 21
48 27 1
48 28 25
48 29 72
48 30 131
48 31 118
48 32 22
48 33 21
48 35 158
48 36 102
48 37 113
48 38 119
48 39 49
48 40 44
48 41 79
48 42 46
48 43 42
48 44 91
48 45 44
48 46 90
49 0 139
49 1 14
49 2 44
49 4 129
49 6 79
49 7 128
49 8 67
49 9 126
49 10 124
49 11 76
49 12 36
49 13 99
49 14 3
49 15 30
49 16 60
49 17 25
49 18 100
49 20 59
49 21 156
49 22 117
49 23 118
49 24 12
49 25 87
49 27 58
49 29 91
49 30 23
49 31 132
49 32 155
49 33 67
49 35 61
49 36 148
49 37 64
49 38 119
49 39 140
49 40 141
49 41 14
49 42 147
49 43 120
49 44 51
49 45 159
49 46 139
49 47 48
49 48 103
50 0 42
50 1 56
50 2 88
50 3 101
50 4 31
50 5 50
50 6 4
50 8 116
50 9 19
50 11 67
50 12 89
50 13 47
50 14 29
50 15 6
50 16 126
50 17 95
50 18 84
50 19 57
50 20 23
50 21 33
50 24 154
50 25 7
50 26 1
50 27 58
50 28 126
50 29 12
50 30 134
50 31 32
50 33 43
50 34 21
50 35 124
50 36 149
50 37 149
50 38 53
50 39 49
50 40 20
50 42 77
50 43 53
50 44 133
50 45 99
50 46 21
50 47 12
50 48 136
50 49 16
51 0 64
51 1 148
51 2 160
51 3 68
51 4 39
51 5 126
51 6 97
51 7 109
51 8 123
51 11 36
51 12 32
51 13 96
51 14 29
51 15 8
51 16 100
51 17 46
51 18 2
51 19 30
51 20 150
51 22 11
51 23 1
51 24 13
51 26 31
51 27 2
51 28 14
51 29 17
51 30 107
51 31 130
51 32 126
51 34 114
51 35 117
51 36 157
51 37 108
51 38 32
51 39 144
51 40 87
51 41 14
51 42 95
51 43 17
51 44 88
51 45 46
51 46 40
51 47 74
51 48 30
51 49 42
52 0 109
52 2 147
52 3 54
52 4 75
52 5 12
52 6 9
52 7 57
52 8 59
52 9 29
52 10 154
52 11 137
52 12 78
52 13 119
52 14 106
52 15 14
52 16 84
52 17 112
52 18 23
52 19 107
52 20 59
52 21 18
52 22 82
52 23 20
52 24 54
52 25 118
52 26 121
52 27 116
52 28 113
52 30 66
52 32 40
52 33 11
52 34 61
52 35 2
52 36 112
52 37 46
52 38 143
52 39 45
52 40 6
52 41 159
52 42 71
52 43 118
52 44 65
52 45 135
52 46 29
52 47 79
52 48 91
52 49 22
52 50 147
52 51 141
53 1 63
53 2 130
53 3 27
53 4 55
53 5 38
53 6 64
53 7 72
53 8 31
53 9 32
53 10 83
53 11 69
53 12 58
53 13 84
53 14 53
53 15 151
53 16 26
53 17 76
53 18 81
53 19 54
53 20 53
53 21 50
53 23 118
53 24 87
53 26 67
53 27 149
53 29 51
53 31 90
53 32 142
53 33 113
53 34 36
53 35 70
53 36 9
53 37 150
53 38 130
53 39 158
53 40 19
53 41 124
53 42 139
53 43 36
53 44 126
53 45 87
53 47 74
53 48 120
53 49 153
53 50 159
53 51 55
53 52 124
54 0 6
54 1 24
54 3 135
54 4 72
54 5 28
54 6 6
54 7 31
54 8 123
54 9 149
54 10 96
54 11 30
54 12 31
54 13 150
54 14 84
54 15 132
54 16 146
54 17 29
54 18 12
54 20 99
54 21 149
54 22 99
54 23 115
54 24 148
54 25 95
54 26 155
54 27 24
54 28 154
54 29 69
54 30 70
54 31 111
54 32 30
54 33 9
54 34 38
54 35 45
54 37 78
54 38 63
54 39 66
54 40 141
54 41 108
54 43 148
54 44 138
54 45 24
54 46 87
54 47 121
54 48 17
54 49 117
54 51 94
54 52 116
54 53 94
55 0 59
55 1 49
55 2 22
55 3 143
55 4 80
55 5 36
55 6 39
55 7 90
55 8 123
55 9 35
55 10 43
55 11 14
55 12 116
55 13 129
55 14 105
55 15 13
55 16 153
55 17 116
55 18 62
55 19 10
55 20 47
55 21 120
55 22 53
55 23 64
55 24 87
55 25 38
55 26 84
55 27 73
55 28 55
55 29 49
55 30 86
55 31 87
55 32 138
55 33 109
55 35 137
55 36 116
55 37 90
55 38 150
55 40 48
55 41 22
55 42 23
55 43 136
55 44 126
55 45 79
55 46 66
55 47 117
55 48 122
55 49 6
55 50 109
55 51 19
55 52 63
55 53 120
56 0 137
56 1 107
56 3 12
56 4 138
56 5 15
56 6 97
56 7 33
56 8 21
56 10 17
56 11 153
56 12 40
56 13 87
56 14 66
56 16 33
56 17 140
56 18 86
56 19 153
56 20 53
56 21 82
56 22 82
56 23 6
56 24 142
56 25 40
56 27 53
56 28 69
56 29 53
56 30 146
56 31 50
56 32 143
56 33 132
56 34 100
56 35 84
56 36 154
56 37 12
56 40 83
56 41 54
56 42 126
56 43 134
56 44 75
56 45 58
56 46 38
56 48 67
56 49 26
56 52 66
56 53 151
56 54 112
56 55 151
57 0 83
57 1 87
57 2 5
57 3 88
57 4 157
57 5 35
57 6 157
57 7 111
57 8 57
57 9 90
57 10 51
57 13 13
57 14 39
57 15 87
57 16 138
57 18 7
57 19 159
57 21 152
57 22 65
57 23 34
57 24 75
57 25 133
57 26 76
57 29 108
57 30 140
57 31 111
57 32 11
57 33 85
57 34 61
57 35 95
57 36 100
57 37 68
57 38 147
57 39 127
57 40 87
57 41 58
57 42 94
57 43 62
57 44 110
57 45 141
57 46 30
57 47 19
57 48 81
57 49 107
57 50 95
57 51 156
57 52 46
57 53 10
57 54 136
57 55 3
57 56 1
58 0 156
58 1 117
58 2 80
58 3 59
58 4 128
58 5 138
58 6 100
58 7 87
58 8 73
58 9 85
58 10 94
58 11 80
58 12 86
58 13 138
58 14 91
58 15 24
58 16 45
58 17 7
58 20 108
58 21 138
58 22 98
58 23 22
58 24 98
58 25 8
58 26 18
58 27 145
58 28 110
58 29 70
58 30 99
58 31 63
58 32 79
58 33 113
58 34 146
58 35 75
58 36 65
58 37 98
58 38 48
58 39 106
58 40 62
58 41 99
58 42 64
58 43 145
58 44 96
58 45 74
58 46 52
58 47 1
58 48 144
58 49 13
58 50 24
58 51 143
58 52 116
58 53 85
58 54 87
58 55 8
58 56 139
58 57 157
59 0 160
59 1 92
59 2 31
59 3 144
59 5 38
59 6 16
59 7 112
59 10 158
59 11 49
59 12 31
59 13 40
59 14 100
59 17 106
59 18 133
59 19 63
59 20 123
59 21 45
59 22 54
59 23 121
59 24 64
59 25 98
59 27 152
59 28 58
59 29 127
59 30 22
59 31 115
59 32 9
59 34 115
59 35 131
59 37 146
59 38 26
59 40 155
59 41 10
59 42 6
59 43 159
59 44 67
59 45 14
59 46 141
59 47 52
59 48 147
59 49 42
59 50 63
59 51 66
59 53 160
59 54 157
59 56 24
59 57 14
59 58 18
60 0 96
60 1 81
60 2 48
60 3 50
60 4 138
60 5 76
60 6 151
60 8 126
60 9 11
60 10 117
60 11 69
60 12 52
60 13 127
60 14 107
60 15 106
60 16 28
60 17 152
60 18 90
60 19 83
60 21 159
60 23 94
60 24 37
60 25 68
60 26 99
60 27 104
60 28 54
60 29 130
60 30 8
60 31 70
60 32 93
60 34 84
60 35 37
60 36 66
60 37 51
60 38 60
60 39 6
60 40 51
60 41 104
60 42 53
60 43 4
60 44 86
60 45 129
60 46 33
60 47 140
60 48 52
60 49 26
60 50 23
60 51 17
60 52 96
60 53 101
60 54 100
60 55 103
60 56 84
60 57 42
60 58 85
60 59 13
61 0 99
61 2 71
61 3 90
61 4 14
61 5 79
61 6 99
61 7 74
61 8 126
61 9 8
61 10 98
61 11 34
61 13 150
61 14 82
61 15 99
61 16 26
61 17 108
61 18 154
61 19 80
61 20 49
61 21 71
61 22 108
61 23 18
61 24 68
61 25 99
61 26 73
61 27 21
61 28 58
61 29 106
61 30 78
61 31 99
61 32 87
61 33 154
61 34 67
61 35 37
61 36 118
61 37 128
61 38 57
61 39 156
61 41 33
61 42 20
61 43 92
61 44 82
61 45 93
61 47 158
61 48 88
61 49 124
61 50 140
61 51 116
61 52 103
61 53 99
61 55 61
61 56 115
61 57 19
61 58 48
61 59 76
61 60 150
62 0 135
62 1 14
62 2 63
62 3 143
62 4 43
62 5 124
62 6 16
62 7 2
62 8 2
62 9 133
62 10 80
62 11 23
62 12 78
62 13 128
62 14 65
62 15 83
62 16 43
62 17 65
62 18 116
62 20 10
62 21 132
62 22 61
62 23 35
62 24 64
62 25 71
62 26 95
62 27 57
62 28 74
62 29 95
62 30 41
62 32 66
62 33 27
62 34 54
62 36 18
62 37 19
62 38 102
62 39 26
62 40 107
62 41 46
62 42 53
62 43 99
62 44 52
62 45 43
62 46 1
62 47 134
62 48 157
62 49 124
62 50 89
62 51 71
62 52 116
62 53 125
62 54 142
62 55 157
62 56 68
62 58 144
62 59 132
62 60 150
62 61 69
63 0 92
63 1 25
63 2 32
63 3 151
63 4 114
63 5 148
63 6 42
63 7 127
63 8 134
63 9 147
63 10 84
63 11 78
63 13 117
63 14 17
63 15 85
63 16 79
63 17 83
63 18 13
63 19 86
63 20 116
63 21 71
63 22 74
63 23 67
63 24 68
63 25 160
63 26 71
63 27 15
63 28 141
63 29 31
63 30 134
63 32 10
63 33 23
63 34 143
63 35 103
63 36 1
63 37 50
63 38 124
63 39 118
63 40 1
63 41 5
63 42 93
63 43 102
63 44 92
63 46 27
63 47 54
63 48 96
63 49 40
63 50 152
63 51 100
63 52 77
63 53 10
63 54 5
63 55 98
63 56 64
63 57 33
63 58 97
63 59 141
63 60 102
63 61 69
63 62 33
64 0 113
64 1 31
64 2 8
64 3 80
64 4 117
64 5 99
64 6 51
64 7 71
64 8 32
64 9 154
64 10 49
64 11 97
64 12 10
64 13 18
64 14 75
64 15 66
64 16 129
64 17 17
64 18 39
64 19 106
64 20 159
64 21 22
64 22 48
64 23 101
64 24 107
64 25 64
64 26 41
64 27 71
64 28 32
64 29 9
64 30 11
64 31 113
64 32 43
64 33 123
64 34 60
64 35 82
64 36 157
64 37 125
64 38 70
64 40 118
64 41 14
64 42 125
64 43 21
64 44 92
64 45 87
64 46 8
64 47 29
64 48 46
64 49 1
64 50 150
64 51 121
64 52 23
64 53 156
64 54 14
64 55 120
64 56 106
64 57 150
64 58 145
64 60 73
64 61 76
64 63 57
65 0 31
65 1 25
65 2 114
65 3 81
65 5 41
65 6 74
65 7 6
65 9 73
65 10 149
65 11 3
65 12 59
65 13 24
65 14 35
65 15 153
65 16 134
65 17 20
65 18 74
65 19 19
65 20 126
65 22 70
65 23 113
65 24 12
65 25 88
65 26 148
65 27 144
65 28 97
65 29 93
65 30 114
65 31 59
65 32 125
65 33 63
65 35 119
65 36 3
65 37 104
65 38 83
65 39 89
65 40 2
65 41 138
65 42 77
65 43 138
65 45 127
65 47 48
65 49 33
65 50 133
65 51 122
65 52 122
65 53 106
65 54 38
65 55 75
65 56 159
65 58 130
65 60 126
65 61 130
65 62 8
65 63 23
65 64 46
66 0 45
66 1 87
66 2 18
66 3 129
66 4 146
66 5 75
66 6 62
66 7 64
66 8 153
66 9 115
66 10 158
66 11 96
66 12 96
66 13 96
66 14 39
66 15 132
66 16 156
66 17 60
66 18 101
66 19 25
66 20 122
66 21 5
66 22 33
66 24 77
66 25 105
66 26 29
66 27 32
66 28 36
66 30 145
66 31 29
66 32 145
66 33 26
66 34 8
66 35 26
66 36 90
66 37 107
66 38 15
66 39 102
66 40 6
66 41 132
66 43 74
66 45 32
66 46 16
66 47 82
66 48 9
66 49 138
66 50 3
66 51 28
66 52 10
66 53 152
66 54 42
66 55 154
66 56 60
66 57 26
66 58 150
66 59 87
66 60 24
66 61 145
66 62 86
66 63 14
66 64 121
66 65 29
67 0 33
67 1 120
67 3 32
67 4 92
67 5 106
67 7 45
67 8 59
67 9 9
67 11 138
67 12 103
67 13 58
67 15 75
67 16 3
67 17 115
67 18 87
67 20 35
67 21 123
67 22 78
67 23 59
67 25 3
67 26 70
67 27 38
67 28 18
67 30 109
67 31 87
67 32 97
67 33 148
67 34 119
67 35 55
67 37 115
67 38 45
67 39 92
67 40 76
67 41 106
67 42 154
67 44 82
67 45 84
67 46 105
67 47 29
67 49 114
67 50 26
67 51 27
67 52 147
67 53 112
67 54 124
67 55 113
67 56 152
67 57 83
67 58 89
67 59 58
67 60 73
67 61 85
67 62 41
67 63 10
67 66 40
68 0 45
68 2 21
68 3 66
68 4 86
68 5 4
68 6 104
68 7 12
68 8 61
68 9 44
68 10 18
68 11 20
68 13 83
68 14 124
68 15 121
68 16 123
68 17 114
68 18 106
68 19 71
68 20 39
68 21 8
68 22 70
68 23 149
68 24 152
68 25 141
68 26 79
68 27 157
68 28 63
68 29 82
68 30 15
68 31 129
68 32 38
68 33 17
68 34 1
68 35 143
68 36 14
68 37 36
68 38 71
68 39 114
68 40 123
68 41 124
68 42 148
68 43 100
68 44 37
68 45 50
68 46 132
68 47 110
68 49 154
68 50 120
68 51 47
68 52 86
68 53 70
68 54 74
68 55 37
68 56 139
68 57 7
68 58 105
68 59 147
68 61 142
68 62 41
68 63 1
68 64 6
68 65 61
68 66 111
68 67 10
69 0 18
69 1 69
69 2 101
69 3 142
69 4 63
69 5 109
69 6 111
69 7 21
69 10 151
69 11 114
69 12 96
69 14 60
69 15 39
69 16 55
69 17 3
69 18 1
69 20 134
69 21 120
69 24 85
69 25 144
69 26 31
69 27 156
69 28 71
69 30 83
69 31 143
69 32 65
69 33 6
69 34 16
69 35 26
69 37 45
69 38 131
69 39 25
69 40 86
69 41 123
69 42 78
69 43 8
69 45 160
69 46 20
69 47 1
69 48 122
69 49 21
69 50 94
69 53 130
69 54 107
69 55 114
69 56 116
69 57 122
69 58 62
69 59 47
69 60 34
69 61 149
69 62 55
69 63 38
69 64 139
69 65 119
69 66 150
69 67 132
69 68 159
